NAME : amz2269.1591605_90105.tour
COMMENT : Cost = 1591605_90105
COMMENT : Found by LKH-AMZ [Keld Helsgaun] Sun May 11 13:48:42 2025
COMMENT : TW viol.: 0 #: 0
TYPE : TOUR
DIMENSION : 123
TOUR_SECTION
87
82
88
68
73
72
65
117
96
29
78
24
60
34
4
54
26
84
116
91
112
51
23
55
52
41
106
30
46
9
40
71
7
103
56
109
98
108
49
62
115
120
45
12
92
99
8
28
105
95
63
5
93
11
13
6
14
22
61
110
70
37
76
2
53
57
74
43
20
90
27
85
104
15
35
18
111
80
118
86
33
119
121
39
97
17
114
1
83
122
36
44
100
42
3
19
89
32
81
47
102
113
50
38
58
123
31
16
64
77
94
101
21
79
59
67
69
107
10
48
66
75
25
-1
EOF
